c User generated cnf file
p cnf 10 36
2 7 -7 0 
-9 3 6 0 
10 1 -5 0 
-4 8 2 0 
-10 10 2 0 
-6 8 4 0 
9 -1 2 0 
9 -4 10 0 
9 8 -6 0 
9 7 -2 0 
-5 1 2 0 
9 9 -9 0 
10 9 -9 0 
5 -3 4 0 
3 -7 9 0 
4 -3 3 0 
10 -8 2 0 
2 -5 10 0 
8 2 -7 0 
2 6 -3 0 
-1 7 7 0 
5 -8 8 0 
8 1 -1 0 
-7 10 9 0 
-9 6 8 0 
-6 2 8 0 
-5 10 9 0 
-2 10 8 0 
-5 1 3 0 
7 7 -1 0 
-3 2 8 0 
3 -8 9 0 
1 -9 1 0 
-10 8 3 0 
7 -8 3 0 
1 -2 8 0 
